data/lp_files/pEFS/70_5.lp
\ Model foo
\ LP format - for model browsing. Use MPS format to capture full model detail.
Minimize
  z
Subject To
 allocateEach[1]: x[1,1] + x[2,1] + x[3,1] + x[4,1] = 1
 allocateEach[2]: x[1,2] + x[2,2] + x[3,2] + x[4,2] = 1
 allocateEach[3]: x[1,3] + x[2,3] + x[3,3] + x[4,3] = 1
 allocateEach[4]: x[1,4] + x[2,4] + x[3,4] + x[4,4] = 1
 allocateEach[5]: x[1,5] + x[2,5] + x[3,5] + x[4,5] = 1
 allocateEach[6]: x[1,6] + x[2,6] + x[3,6] + x[4,6] = 1
 allocateEach[7]: x[1,7] + x[2,7] + x[3,7] + x[4,7] = 1
 allocateEach[8]: x[1,8] + x[2,8] + x[3,8] + x[4,8] = 1
 allocateEach[9]: x[1,9] + x[2,9] + x[3,9] + x[4,9] = 1
 allocateEach[10]: x[1,10] + x[2,10] + x[3,10] + x[4,10] = 1
 allocateAllCash: cashProportion[1] + cashProportion[2] + cashProportion[3]
   + cashProportion[4] = 1
 findWorstP[1,2]: z + 0.0446714415474187 cashProportion[1]
   - 0.0446714415474187 cashProportion[2] + 0.0165582143335765 x[1,1]
   + 0.1305299522015576 x[1,2] + 0.133493157824203 x[1,3]
   + 0.1329719910061498 x[1,4] + 0.1079410932590795 x[1,5]
   + 0.1457182423276799 x[1,6] + 0.0149351519573537 x[1,7]
   + 0.1355629346159 x[1,8] + 0.0057328349985854 x[1,9]
   + 0.1318849859284959 x[1,10] - 0.0165582143335765 x[2,1]
   - 0.1305299522015576 x[2,2] - 0.133493157824203 x[2,3]
   - 0.1329719910061498 x[2,4] - 0.1079410932590795 x[2,5]
   - 0.1457182423276799 x[2,6] - 0.0149351519573537 x[2,7]
   - 0.1355629346159 x[2,8] - 0.0057328349985854 x[2,9]
   - 0.1318849859284959 x[2,10] >= 0
 findWorstP[1,3]: z + 0.0446714415474187 cashProportion[1]
   - 0.0446714415474187 cashProportion[3] + 0.0165582143335765 x[1,1]
   + 0.1305299522015576 x[1,2] + 0.133493157824203 x[1,3]
   + 0.1329719910061498 x[1,4] + 0.1079410932590795 x[1,5]
   + 0.1457182423276799 x[1,6] + 0.0149351519573537 x[1,7]
   + 0.1355629346159 x[1,8] + 0.0057328349985854 x[1,9]
   + 0.1318849859284959 x[1,10] - 0.0165582143335765 x[3,1]
   - 0.1305299522015576 x[3,2] - 0.133493157824203 x[3,3]
   - 0.1329719910061498 x[3,4] - 0.1079410932590795 x[3,5]
   - 0.1457182423276799 x[3,6] - 0.0149351519573537 x[3,7]
   - 0.1355629346159 x[3,8] - 0.0057328349985854 x[3,9]
   - 0.1318849859284959 x[3,10] >= 0
 findWorstP[1,4]: z + 0.0446714415474187 cashProportion[1]
   - 0.0446714415474187 cashProportion[4] + 0.0165582143335765 x[1,1]
   + 0.1305299522015576 x[1,2] + 0.133493157824203 x[1,3]
   + 0.1329719910061498 x[1,4] + 0.1079410932590795 x[1,5]
   + 0.1457182423276799 x[1,6] + 0.0149351519573537 x[1,7]
   + 0.1355629346159 x[1,8] + 0.0057328349985854 x[1,9]
   + 0.1318849859284959 x[1,10] - 0.0165582143335765 x[4,1]
   - 0.1305299522015576 x[4,2] - 0.133493157824203 x[4,3]
   - 0.1329719910061498 x[4,4] - 0.1079410932590795 x[4,5]
   - 0.1457182423276799 x[4,6] - 0.0149351519573537 x[4,7]
   - 0.1355629346159 x[4,8] - 0.0057328349985854 x[4,9]
   - 0.1318849859284959 x[4,10] >= 0
 findWorstP[2,1]: z - 0.0494510928691524 cashProportion[1]
   + 0.0494510928691524 cashProportion[2] - 0.0372531566280948 x[1,1]
   - 0.1430290442752118 x[1,2] - 0.148930208024264 x[1,3]
   - 0.0192859262189694 x[1,4] - 0.1604193452675304 x[1,5]
   - 0.107078099759338 x[1,6] - 0.034384993241684 x[1,7]
   - 0.1409356146770843 x[1,8] - 0.1156166551280783 x[1,9]
   - 0.0436158639105924 x[1,10] + 0.0372531566280948 x[2,1]
   + 0.1430290442752118 x[2,2] + 0.148930208024264 x[2,3]
   + 0.0192859262189694 x[2,4] + 0.1604193452675304 x[2,5]
   + 0.107078099759338 x[2,6] + 0.034384993241684 x[2,7]
   + 0.1409356146770843 x[2,8] + 0.1156166551280783 x[2,9]
   + 0.0436158639105924 x[2,10] >= 0
 findWorstP[2,3]: z + 0.0494510928691524 cashProportion[2]
   - 0.0494510928691524 cashProportion[3] + 0.0372531566280948 x[2,1]
   + 0.1430290442752118 x[2,2] + 0.148930208024264 x[2,3]
   + 0.0192859262189694 x[2,4] + 0.1604193452675304 x[2,5]
   + 0.107078099759338 x[2,6] + 0.034384993241684 x[2,7]
   + 0.1409356146770843 x[2,8] + 0.1156166551280783 x[2,9]
   + 0.0436158639105924 x[2,10] - 0.0372531566280948 x[3,1]
   - 0.1430290442752118 x[3,2] - 0.148930208024264 x[3,3]
   - 0.0192859262189694 x[3,4] - 0.1604193452675304 x[3,5]
   - 0.107078099759338 x[3,6] - 0.034384993241684 x[3,7]
   - 0.1409356146770843 x[3,8] - 0.1156166551280783 x[3,9]
   - 0.0436158639105924 x[3,10] >= 0
 findWorstP[2,4]: z + 0.0494510928691524 cashProportion[2]
   - 0.0494510928691524 cashProportion[4] + 0.0372531566280948 x[2,1]
   + 0.1430290442752118 x[2,2] + 0.148930208024264 x[2,3]
   + 0.0192859262189694 x[2,4] + 0.1604193452675304 x[2,5]
   + 0.107078099759338 x[2,6] + 0.034384993241684 x[2,7]
   + 0.1409356146770843 x[2,8] + 0.1156166551280783 x[2,9]
   + 0.0436158639105924 x[2,10] - 0.0372531566280948 x[4,1]
   - 0.1430290442752118 x[4,2] - 0.148930208024264 x[4,3]
   - 0.0192859262189694 x[4,4] - 0.1604193452675304 x[4,5]
   - 0.107078099759338 x[4,6] - 0.034384993241684 x[4,7]
   - 0.1409356146770843 x[4,8] - 0.1156166551280783 x[4,9]
   - 0.0436158639105924 x[4,10] >= 0
 findWorstP[3,1]: z - 0.0756734940974675 cashProportion[1]
   + 0.0756734940974675 cashProportion[3] - 0.086015538290788 x[1,1]
   - 0.0465391988699425 x[1,2] - 0.2357733831096761 x[1,3]
   - 0.0707294924830996 x[1,4] - 0.144183230753708 x[1,5]
   - 0.0439410755725961 x[1,6] - 0.1632277267682373 x[1,7]
   - 0.0390727474523257 x[1,8] - 0.0275956008475431 x[1,9]
   - 0.0672485117546161 x[1,10] + 0.086015538290788 x[3,1]
   + 0.0465391988699425 x[3,2] + 0.2357733831096761 x[3,3]
   + 0.0707294924830996 x[3,4] + 0.144183230753708 x[3,5]
   + 0.0439410755725961 x[3,6] + 0.1632277267682373 x[3,7]
   + 0.0390727474523257 x[3,8] + 0.0275956008475431 x[3,9]
   + 0.0672485117546161 x[3,10] >= 0
 findWorstP[3,2]: z - 0.0756734940974675 cashProportion[2]
   + 0.0756734940974675 cashProportion[3] - 0.086015538290788 x[2,1]
   - 0.0465391988699425 x[2,2] - 0.2357733831096761 x[2,3]
   - 0.0707294924830996 x[2,4] - 0.144183230753708 x[2,5]
   - 0.0439410755725961 x[2,6] - 0.1632277267682373 x[2,7]
   - 0.0390727474523257 x[2,8] - 0.0275956008475431 x[2,9]
   - 0.0672485117546161 x[2,10] + 0.086015538290788 x[3,1]
   + 0.0465391988699425 x[3,2] + 0.2357733831096761 x[3,3]
   + 0.0707294924830996 x[3,4] + 0.144183230753708 x[3,5]
   + 0.0439410755725961 x[3,6] + 0.1632277267682373 x[3,7]
   + 0.0390727474523257 x[3,8] + 0.0275956008475431 x[3,9]
   + 0.0672485117546161 x[3,10] >= 0
 findWorstP[3,4]: z + 0.0756734940974675 cashProportion[3]
   - 0.0756734940974675 cashProportion[4] + 0.086015538290788 x[3,1]
   + 0.0465391988699425 x[3,2] + 0.2357733831096761 x[3,3]
   + 0.0707294924830996 x[3,4] + 0.144183230753708 x[3,5]
   + 0.0439410755725961 x[3,6] + 0.1632277267682373 x[3,7]
   + 0.0390727474523257 x[3,8] + 0.0275956008475431 x[3,9]
   + 0.0672485117546161 x[3,10] - 0.086015538290788 x[4,1]
   - 0.0465391988699425 x[4,2] - 0.2357733831096761 x[4,3]
   - 0.0707294924830996 x[4,4] - 0.144183230753708 x[4,5]
   - 0.0439410755725961 x[4,6] - 0.1632277267682373 x[4,7]
   - 0.0390727474523257 x[4,8] - 0.0275956008475431 x[4,9]
   - 0.0672485117546161 x[4,10] >= 0
 findWorstP[4,1]: z - 0.0623001204468995 cashProportion[1]
   + 0.0623001204468995 cashProportion[4] - 0.1837022884910911 x[1,1]
   - 0.0046309756198862 x[1,2] - 0.0774805831291274 x[1,3]
   - 0.0238817128379782 x[1,4] - 0.077501349835943 x[1,5]
   - 0.0749678116044358 x[1,6] - 0.1398637704032895 x[1,7]
   - 0.0794118868629813 x[1,8] - 0.1605058769780288 x[1,9]
   - 0.1157536237903393 x[1,10] + 0.1837022884910911 x[4,1]
   + 0.0046309756198862 x[4,2] + 0.0774805831291274 x[4,3]
   + 0.0238817128379782 x[4,4] + 0.077501349835943 x[4,5]
   + 0.0749678116044358 x[4,6] + 0.1398637704032895 x[4,7]
   + 0.0794118868629813 x[4,8] + 0.1605058769780288 x[4,9]
   + 0.1157536237903393 x[4,10] >= 0
 findWorstP[4,2]: z - 0.0623001204468995 cashProportion[2]
   + 0.0623001204468995 cashProportion[4] - 0.1837022884910911 x[2,1]
   - 0.0046309756198862 x[2,2] - 0.0774805831291274 x[2,3]
   - 0.0238817128379782 x[2,4] - 0.077501349835943 x[2,5]
   - 0.0749678116044358 x[2,6] - 0.1398637704032895 x[2,7]
   - 0.0794118868629813 x[2,8] - 0.1605058769780288 x[2,9]
   - 0.1157536237903393 x[2,10] + 0.1837022884910911 x[4,1]
   + 0.0046309756198862 x[4,2] + 0.0774805831291274 x[4,3]
   + 0.0238817128379782 x[4,4] + 0.077501349835943 x[4,5]
   + 0.0749678116044358 x[4,6] + 0.1398637704032895 x[4,7]
   + 0.0794118868629813 x[4,8] + 0.1605058769780288 x[4,9]
   + 0.1157536237903393 x[4,10] >= 0
 findWorstP[4,3]: z - 0.0623001204468995 cashProportion[3]
   + 0.0623001204468995 cashProportion[4] - 0.1837022884910911 x[3,1]
   - 0.0046309756198862 x[3,2] - 0.0774805831291274 x[3,3]
   - 0.0238817128379782 x[3,4] - 0.077501349835943 x[3,5]
   - 0.0749678116044358 x[3,6] - 0.1398637704032895 x[3,7]
   - 0.0794118868629813 x[3,8] - 0.1605058769780288 x[3,9]
   - 0.1157536237903393 x[3,10] + 0.1837022884910911 x[4,1]
   + 0.0046309756198862 x[4,2] + 0.0774805831291274 x[4,3]
   + 0.0238817128379782 x[4,4] + 0.077501349835943 x[4,5]
   + 0.0749678116044358 x[4,6] + 0.1398637704032895 x[4,7]
   + 0.0794118868629813 x[4,8] + 0.1605058769780288 x[4,9]
   + 0.1157536237903393 x[4,10] >= 0
Bounds
 z <= 1
 -infinity <= cashProportion[1] <= 1
 -infinity <= cashProportion[2] <= 1
 -infinity <= cashProportion[3] <= 1
 -infinity <= cashProportion[4] <= 1
Binaries
 x[1,1] x[1,2] x[1,3] x[1,4] x[1,5] x[1,6] x[1,7] x[1,8] x[1,9] x[1,10]
 x[2,1] x[2,2] x[2,3] x[2,4] x[2,5] x[2,6] x[2,7] x[2,8] x[2,9] x[2,10]
 x[3,1] x[3,2] x[3,3] x[3,4] x[3,5] x[3,6] x[3,7] x[3,8] x[3,9] x[3,10]
 x[4,1] x[4,2] x[4,3] x[4,4] x[4,5] x[4,6] x[4,7] x[4,8] x[4,9] x[4,10]
End
