data/mps_files/q3/70_5.mps
NAME foo
ROWS
 N  OBJ
 E  allocateEach[1]
 E  allocateEach[2]
 E  allocateEach[3]
 E  allocateEach[4]
 E  allocateEach[5]
 E  allocateEach[6]
 E  allocateEach[7]
 E  allocateEach[8]
 E  allocateEach[9]
 E  allocateEach[10]
 E  allocateAllCash
 G  findWorstP[1,2]
 G  findWorstP[1,3]
 G  findWorstP[1,4]
 G  findWorstP[2,1]
 G  findWorstP[2,3]
 G  findWorstP[2,4]
 G  findWorstP[3,1]
 G  findWorstP[3,2]
 G  findWorstP[3,4]
 G  findWorstP[4,1]
 G  findWorstP[4,2]
 G  findWorstP[4,3]
COLUMNS
    z         OBJ       1
    z         findWorstP[1,2]  1
    z         findWorstP[1,3]  1
    z         findWorstP[1,4]  1
    z         findWorstP[2,1]  1
    z         findWorstP[2,3]  1
    z         findWorstP[2,4]  1
    z         findWorstP[3,1]  1
    z         findWorstP[3,2]  1
    z         findWorstP[3,4]  1
    z         findWorstP[4,1]  1
    z         findWorstP[4,2]  1
    z         findWorstP[4,3]  1
    cashProportion[1]  allocateAllCash  1
    cashProportion[1]  findWorstP[1,2]  4.4671441547418735e-02
    cashProportion[1]  findWorstP[1,3]  4.4671441547418735e-02
    cashProportion[1]  findWorstP[1,4]  4.4671441547418735e-02
    cashProportion[1]  findWorstP[2,1]  -4.9451092869152405e-02
    cashProportion[1]  findWorstP[3,1]  -7.5673494097467472e-02
    cashProportion[1]  findWorstP[4,1]  -6.2300120446899532e-02
    cashProportion[2]  allocateAllCash  1
    cashProportion[2]  findWorstP[1,2]  -4.4671441547418735e-02
    cashProportion[2]  findWorstP[2,1]  4.9451092869152405e-02
    cashProportion[2]  findWorstP[2,3]  4.9451092869152405e-02
    cashProportion[2]  findWorstP[2,4]  4.9451092869152405e-02
    cashProportion[2]  findWorstP[3,2]  -7.5673494097467472e-02
    cashProportion[2]  findWorstP[4,2]  -6.2300120446899532e-02
    cashProportion[3]  allocateAllCash  1
    cashProportion[3]  findWorstP[1,3]  -4.4671441547418735e-02
    cashProportion[3]  findWorstP[2,3]  -4.9451092869152405e-02
    cashProportion[3]  findWorstP[3,1]  7.5673494097467472e-02
    cashProportion[3]  findWorstP[3,2]  7.5673494097467472e-02
    cashProportion[3]  findWorstP[3,4]  7.5673494097467472e-02
    cashProportion[3]  findWorstP[4,3]  -6.2300120446899532e-02
    cashProportion[4]  allocateAllCash  1
    cashProportion[4]  findWorstP[1,4]  -4.4671441547418735e-02
    cashProportion[4]  findWorstP[2,4]  -4.9451092869152405e-02
    cashProportion[4]  findWorstP[3,4]  -7.5673494097467472e-02
    cashProportion[4]  findWorstP[4,1]  6.2300120446899532e-02
    cashProportion[4]  findWorstP[4,2]  6.2300120446899532e-02
    cashProportion[4]  findWorstP[4,3]  6.2300120446899532e-02
    MARKER    'MARKER'                 'INTORG'
    x[1,1]    allocateEach[1]  1
    x[1,1]    findWorstP[1,2]  1.6558214333576543e-02
    x[1,1]    findWorstP[1,3]  1.6558214333576543e-02
    x[1,1]    findWorstP[1,4]  1.6558214333576543e-02
    x[1,1]    findWorstP[2,1]  -3.7253156628094815e-02
    x[1,1]    findWorstP[3,1]  -8.6015538290788035e-02
    x[1,1]    findWorstP[4,1]  -1.8370228849109110e-01
    x[1,2]    allocateEach[2]  1
    x[1,2]    findWorstP[1,2]  1.3052995220155755e-01
    x[1,2]    findWorstP[1,3]  1.3052995220155755e-01
    x[1,2]    findWorstP[1,4]  1.3052995220155755e-01
    x[1,2]    findWorstP[2,1]  -1.4302904427521182e-01
    x[1,2]    findWorstP[3,1]  -4.6539198869942490e-02
    x[1,2]    findWorstP[4,1]  -4.6309756198861986e-03
    x[1,3]    allocateEach[3]  1
    x[1,3]    findWorstP[1,2]  1.3349315782420298e-01
    x[1,3]    findWorstP[1,3]  1.3349315782420298e-01
    x[1,3]    findWorstP[1,4]  1.3349315782420298e-01
    x[1,3]    findWorstP[2,1]  -0.148930208024264
    x[1,3]    findWorstP[3,1]  -2.3577338310967613e-01
    x[1,3]    findWorstP[4,1]  -0.0774805831291274
    x[1,4]    allocateEach[4]  1
    x[1,4]    findWorstP[1,2]  1.3297199100614979e-01
    x[1,4]    findWorstP[1,3]  1.3297199100614979e-01
    x[1,4]    findWorstP[1,4]  1.3297199100614979e-01
    x[1,4]    findWorstP[2,1]  -1.9285926218969442e-02
    x[1,4]    findWorstP[3,1]  -7.0729492483099593e-02
    x[1,4]    findWorstP[4,1]  -2.3881712837978158e-02
    x[1,5]    allocateEach[5]  1
    x[1,5]    findWorstP[1,2]  1.0794109325907947e-01
    x[1,5]    findWorstP[1,3]  1.0794109325907947e-01
    x[1,5]    findWorstP[1,4]  1.0794109325907947e-01
    x[1,5]    findWorstP[2,1]  -1.6041934526753041e-01
    x[1,5]    findWorstP[3,1]  -0.144183230753708
    x[1,5]    findWorstP[4,1]  -7.7501349835943020e-02
    x[1,6]    allocateEach[6]  1
    x[1,6]    findWorstP[1,2]  1.4571824232767991e-01
    x[1,6]    findWorstP[1,3]  1.4571824232767991e-01
    x[1,6]    findWorstP[1,4]  1.4571824232767991e-01
    x[1,6]    findWorstP[2,1]  -0.107078099759338
    x[1,6]    findWorstP[3,1]  -4.3941075572596112e-02
    x[1,6]    findWorstP[4,1]  -7.4967811604435775e-02
    x[1,7]    allocateEach[7]  1
    x[1,7]    findWorstP[1,2]  1.4935151957353664e-02
    x[1,7]    findWorstP[1,3]  1.4935151957353664e-02
    x[1,7]    findWorstP[1,4]  1.4935151957353664e-02
    x[1,7]    findWorstP[2,1]  -3.4384993241683974e-02
    x[1,7]    findWorstP[3,1]  -1.6322772676823732e-01
    x[1,7]    findWorstP[4,1]  -1.3986377040328946e-01
    x[1,8]    allocateEach[8]  1
    x[1,8]    findWorstP[1,2]  1.3556293461590005e-01
    x[1,8]    findWorstP[1,3]  1.3556293461590005e-01
    x[1,8]    findWorstP[1,4]  1.3556293461590005e-01
    x[1,8]    findWorstP[2,1]  -1.4093561467708435e-01
    x[1,8]    findWorstP[3,1]  -0.0390727474523257
    x[1,8]    findWorstP[4,1]  -7.9411886862981285e-02
    x[1,9]    allocateEach[9]  1
    x[1,9]    findWorstP[1,2]  5.7328349985854045e-03
    x[1,9]    findWorstP[1,3]  5.7328349985854045e-03
    x[1,9]    findWorstP[1,4]  5.7328349985854045e-03
    x[1,9]    findWorstP[2,1]  -1.1561665512807834e-01
    x[1,9]    findWorstP[3,1]  -2.7595600847543138e-02
    x[1,9]    findWorstP[4,1]  -1.6050587697802884e-01
    x[1,10]   allocateEach[10]  1
    x[1,10]   findWorstP[1,2]  1.3188498592849593e-01
    x[1,10]   findWorstP[1,3]  1.3188498592849593e-01
    x[1,10]   findWorstP[1,4]  1.3188498592849593e-01
    x[1,10]   findWorstP[2,1]  -4.3615863910592426e-02
    x[1,10]   findWorstP[3,1]  -6.7248511754616089e-02
    x[1,10]   findWorstP[4,1]  -1.1575362379033934e-01
    x[2,1]    allocateEach[1]  1
    x[2,1]    findWorstP[1,2]  -1.6558214333576543e-02
    x[2,1]    findWorstP[2,1]  3.7253156628094815e-02
    x[2,1]    findWorstP[2,3]  3.7253156628094815e-02
    x[2,1]    findWorstP[2,4]  3.7253156628094815e-02
    x[2,1]    findWorstP[3,2]  -8.6015538290788035e-02
    x[2,1]    findWorstP[4,2]  -1.8370228849109110e-01
    x[2,2]    allocateEach[2]  1
    x[2,2]    findWorstP[1,2]  -1.3052995220155755e-01
    x[2,2]    findWorstP[2,1]  1.4302904427521182e-01
    x[2,2]    findWorstP[2,3]  1.4302904427521182e-01
    x[2,2]    findWorstP[2,4]  1.4302904427521182e-01
    x[2,2]    findWorstP[3,2]  -4.6539198869942490e-02
    x[2,2]    findWorstP[4,2]  -4.6309756198861986e-03
    x[2,3]    allocateEach[3]  1
    x[2,3]    findWorstP[1,2]  -1.3349315782420298e-01
    x[2,3]    findWorstP[2,1]  0.148930208024264
    x[2,3]    findWorstP[2,3]  0.148930208024264
    x[2,3]    findWorstP[2,4]  0.148930208024264
    x[2,3]    findWorstP[3,2]  -2.3577338310967613e-01
    x[2,3]    findWorstP[4,2]  -0.0774805831291274
    x[2,4]    allocateEach[4]  1
    x[2,4]    findWorstP[1,2]  -1.3297199100614979e-01
    x[2,4]    findWorstP[2,1]  1.9285926218969442e-02
    x[2,4]    findWorstP[2,3]  1.9285926218969442e-02
    x[2,4]    findWorstP[2,4]  1.9285926218969442e-02
    x[2,4]    findWorstP[3,2]  -7.0729492483099593e-02
    x[2,4]    findWorstP[4,2]  -2.3881712837978158e-02
    x[2,5]    allocateEach[5]  1
    x[2,5]    findWorstP[1,2]  -1.0794109325907947e-01
    x[2,5]    findWorstP[2,1]  1.6041934526753041e-01
    x[2,5]    findWorstP[2,3]  1.6041934526753041e-01
    x[2,5]    findWorstP[2,4]  1.6041934526753041e-01
    x[2,5]    findWorstP[3,2]  -0.144183230753708
    x[2,5]    findWorstP[4,2]  -7.7501349835943020e-02
    x[2,6]    allocateEach[6]  1
    x[2,6]    findWorstP[1,2]  -1.4571824232767991e-01
    x[2,6]    findWorstP[2,1]  0.107078099759338
    x[2,6]    findWorstP[2,3]  0.107078099759338
    x[2,6]    findWorstP[2,4]  0.107078099759338
    x[2,6]    findWorstP[3,2]  -4.3941075572596112e-02
    x[2,6]    findWorstP[4,2]  -7.4967811604435775e-02
    x[2,7]    allocateEach[7]  1
    x[2,7]    findWorstP[1,2]  -1.4935151957353664e-02
    x[2,7]    findWorstP[2,1]  3.4384993241683974e-02
    x[2,7]    findWorstP[2,3]  3.4384993241683974e-02
    x[2,7]    findWorstP[2,4]  3.4384993241683974e-02
    x[2,7]    findWorstP[3,2]  -1.6322772676823732e-01
    x[2,7]    findWorstP[4,2]  -1.3986377040328946e-01
    x[2,8]    allocateEach[8]  1
    x[2,8]    findWorstP[1,2]  -1.3556293461590005e-01
    x[2,8]    findWorstP[2,1]  1.4093561467708435e-01
    x[2,8]    findWorstP[2,3]  1.4093561467708435e-01
    x[2,8]    findWorstP[2,4]  1.4093561467708435e-01
    x[2,8]    findWorstP[3,2]  -0.0390727474523257
    x[2,8]    findWorstP[4,2]  -7.9411886862981285e-02
    x[2,9]    allocateEach[9]  1
    x[2,9]    findWorstP[1,2]  -5.7328349985854045e-03
    x[2,9]    findWorstP[2,1]  1.1561665512807834e-01
    x[2,9]    findWorstP[2,3]  1.1561665512807834e-01
    x[2,9]    findWorstP[2,4]  1.1561665512807834e-01
    x[2,9]    findWorstP[3,2]  -2.7595600847543138e-02
    x[2,9]    findWorstP[4,2]  -1.6050587697802884e-01
    x[2,10]   allocateEach[10]  1
    x[2,10]   findWorstP[1,2]  -1.3188498592849593e-01
    x[2,10]   findWorstP[2,1]  4.3615863910592426e-02
    x[2,10]   findWorstP[2,3]  4.3615863910592426e-02
    x[2,10]   findWorstP[2,4]  4.3615863910592426e-02
    x[2,10]   findWorstP[3,2]  -6.7248511754616089e-02
    x[2,10]   findWorstP[4,2]  -1.1575362379033934e-01
    x[3,1]    allocateEach[1]  1
    x[3,1]    findWorstP[1,3]  -1.6558214333576543e-02
    x[3,1]    findWorstP[2,3]  -3.7253156628094815e-02
    x[3,1]    findWorstP[3,1]  8.6015538290788035e-02
    x[3,1]    findWorstP[3,2]  8.6015538290788035e-02
    x[3,1]    findWorstP[3,4]  8.6015538290788035e-02
    x[3,1]    findWorstP[4,3]  -1.8370228849109110e-01
    x[3,2]    allocateEach[2]  1
    x[3,2]    findWorstP[1,3]  -1.3052995220155755e-01
    x[3,2]    findWorstP[2,3]  -1.4302904427521182e-01
    x[3,2]    findWorstP[3,1]  4.6539198869942490e-02
    x[3,2]    findWorstP[3,2]  4.6539198869942490e-02
    x[3,2]    findWorstP[3,4]  4.6539198869942490e-02
    x[3,2]    findWorstP[4,3]  -4.6309756198861986e-03
    x[3,3]    allocateEach[3]  1
    x[3,3]    findWorstP[1,3]  -1.3349315782420298e-01
    x[3,3]    findWorstP[2,3]  -0.148930208024264
    x[3,3]    findWorstP[3,1]  2.3577338310967613e-01
    x[3,3]    findWorstP[3,2]  2.3577338310967613e-01
    x[3,3]    findWorstP[3,4]  2.3577338310967613e-01
    x[3,3]    findWorstP[4,3]  -0.0774805831291274
    x[3,4]    allocateEach[4]  1
    x[3,4]    findWorstP[1,3]  -1.3297199100614979e-01
    x[3,4]    findWorstP[2,3]  -1.9285926218969442e-02
    x[3,4]    findWorstP[3,1]  7.0729492483099593e-02
    x[3,4]    findWorstP[3,2]  7.0729492483099593e-02
    x[3,4]    findWorstP[3,4]  7.0729492483099593e-02
    x[3,4]    findWorstP[4,3]  -2.3881712837978158e-02
    x[3,5]    allocateEach[5]  1
    x[3,5]    findWorstP[1,3]  -1.0794109325907947e-01
    x[3,5]    findWorstP[2,3]  -1.6041934526753041e-01
    x[3,5]    findWorstP[3,1]  0.144183230753708
    x[3,5]    findWorstP[3,2]  0.144183230753708
    x[3,5]    findWorstP[3,4]  0.144183230753708
    x[3,5]    findWorstP[4,3]  -7.7501349835943020e-02
    x[3,6]    allocateEach[6]  1
    x[3,6]    findWorstP[1,3]  -1.4571824232767991e-01
    x[3,6]    findWorstP[2,3]  -0.107078099759338
    x[3,6]    findWorstP[3,1]  4.3941075572596112e-02
    x[3,6]    findWorstP[3,2]  4.3941075572596112e-02
    x[3,6]    findWorstP[3,4]  4.3941075572596112e-02
    x[3,6]    findWorstP[4,3]  -7.4967811604435775e-02
    x[3,7]    allocateEach[7]  1
    x[3,7]    findWorstP[1,3]  -1.4935151957353664e-02
    x[3,7]    findWorstP[2,3]  -3.4384993241683974e-02
    x[3,7]    findWorstP[3,1]  1.6322772676823732e-01
    x[3,7]    findWorstP[3,2]  1.6322772676823732e-01
    x[3,7]    findWorstP[3,4]  1.6322772676823732e-01
    x[3,7]    findWorstP[4,3]  -1.3986377040328946e-01
    x[3,8]    allocateEach[8]  1
    x[3,8]    findWorstP[1,3]  -1.3556293461590005e-01
    x[3,8]    findWorstP[2,3]  -1.4093561467708435e-01
    x[3,8]    findWorstP[3,1]  0.0390727474523257
    x[3,8]    findWorstP[3,2]  0.0390727474523257
    x[3,8]    findWorstP[3,4]  0.0390727474523257
    x[3,8]    findWorstP[4,3]  -7.9411886862981285e-02
    x[3,9]    allocateEach[9]  1
    x[3,9]    findWorstP[1,3]  -5.7328349985854045e-03
    x[3,9]    findWorstP[2,3]  -1.1561665512807834e-01
    x[3,9]    findWorstP[3,1]  2.7595600847543138e-02
    x[3,9]    findWorstP[3,2]  2.7595600847543138e-02
    x[3,9]    findWorstP[3,4]  2.7595600847543138e-02
    x[3,9]    findWorstP[4,3]  -1.6050587697802884e-01
    x[3,10]   allocateEach[10]  1
    x[3,10]   findWorstP[1,3]  -1.3188498592849593e-01
    x[3,10]   findWorstP[2,3]  -4.3615863910592426e-02
    x[3,10]   findWorstP[3,1]  6.7248511754616089e-02
    x[3,10]   findWorstP[3,2]  6.7248511754616089e-02
    x[3,10]   findWorstP[3,4]  6.7248511754616089e-02
    x[3,10]   findWorstP[4,3]  -1.1575362379033934e-01
    x[4,1]    allocateEach[1]  1
    x[4,1]    findWorstP[1,4]  -1.6558214333576543e-02
    x[4,1]    findWorstP[2,4]  -3.7253156628094815e-02
    x[4,1]    findWorstP[3,4]  -8.6015538290788035e-02
    x[4,1]    findWorstP[4,1]  1.8370228849109110e-01
    x[4,1]    findWorstP[4,2]  1.8370228849109110e-01
    x[4,1]    findWorstP[4,3]  1.8370228849109110e-01
    x[4,2]    allocateEach[2]  1
    x[4,2]    findWorstP[1,4]  -1.3052995220155755e-01
    x[4,2]    findWorstP[2,4]  -1.4302904427521182e-01
    x[4,2]    findWorstP[3,4]  -4.6539198869942490e-02
    x[4,2]    findWorstP[4,1]  4.6309756198861986e-03
    x[4,2]    findWorstP[4,2]  4.6309756198861986e-03
    x[4,2]    findWorstP[4,3]  4.6309756198861986e-03
    x[4,3]    allocateEach[3]  1
    x[4,3]    findWorstP[1,4]  -1.3349315782420298e-01
    x[4,3]    findWorstP[2,4]  -0.148930208024264
    x[4,3]    findWorstP[3,4]  -2.3577338310967613e-01
    x[4,3]    findWorstP[4,1]  0.0774805831291274
    x[4,3]    findWorstP[4,2]  0.0774805831291274
    x[4,3]    findWorstP[4,3]  0.0774805831291274
    x[4,4]    allocateEach[4]  1
    x[4,4]    findWorstP[1,4]  -1.3297199100614979e-01
    x[4,4]    findWorstP[2,4]  -1.9285926218969442e-02
    x[4,4]    findWorstP[3,4]  -7.0729492483099593e-02
    x[4,4]    findWorstP[4,1]  2.3881712837978158e-02
    x[4,4]    findWorstP[4,2]  2.3881712837978158e-02
    x[4,4]    findWorstP[4,3]  2.3881712837978158e-02
    x[4,5]    allocateEach[5]  1
    x[4,5]    findWorstP[1,4]  -1.0794109325907947e-01
    x[4,5]    findWorstP[2,4]  -1.6041934526753041e-01
    x[4,5]    findWorstP[3,4]  -0.144183230753708
    x[4,5]    findWorstP[4,1]  7.7501349835943020e-02
    x[4,5]    findWorstP[4,2]  7.7501349835943020e-02
    x[4,5]    findWorstP[4,3]  7.7501349835943020e-02
    x[4,6]    allocateEach[6]  1
    x[4,6]    findWorstP[1,4]  -1.4571824232767991e-01
    x[4,6]    findWorstP[2,4]  -0.107078099759338
    x[4,6]    findWorstP[3,4]  -4.3941075572596112e-02
    x[4,6]    findWorstP[4,1]  7.4967811604435775e-02
    x[4,6]    findWorstP[4,2]  7.4967811604435775e-02
    x[4,6]    findWorstP[4,3]  7.4967811604435775e-02
    x[4,7]    allocateEach[7]  1
    x[4,7]    findWorstP[1,4]  -1.4935151957353664e-02
    x[4,7]    findWorstP[2,4]  -3.4384993241683974e-02
    x[4,7]    findWorstP[3,4]  -1.6322772676823732e-01
    x[4,7]    findWorstP[4,1]  1.3986377040328946e-01
    x[4,7]    findWorstP[4,2]  1.3986377040328946e-01
    x[4,7]    findWorstP[4,3]  1.3986377040328946e-01
    x[4,8]    allocateEach[8]  1
    x[4,8]    findWorstP[1,4]  -1.3556293461590005e-01
    x[4,8]    findWorstP[2,4]  -1.4093561467708435e-01
    x[4,8]    findWorstP[3,4]  -0.0390727474523257
    x[4,8]    findWorstP[4,1]  7.9411886862981285e-02
    x[4,8]    findWorstP[4,2]  7.9411886862981285e-02
    x[4,8]    findWorstP[4,3]  7.9411886862981285e-02
    x[4,9]    allocateEach[9]  1
    x[4,9]    findWorstP[1,4]  -5.7328349985854045e-03
    x[4,9]    findWorstP[2,4]  -1.1561665512807834e-01
    x[4,9]    findWorstP[3,4]  -2.7595600847543138e-02
    x[4,9]    findWorstP[4,1]  1.6050587697802884e-01
    x[4,9]    findWorstP[4,2]  1.6050587697802884e-01
    x[4,9]    findWorstP[4,3]  1.6050587697802884e-01
    x[4,10]   allocateEach[10]  1
    x[4,10]   findWorstP[1,4]  -1.3188498592849593e-01
    x[4,10]   findWorstP[2,4]  -4.3615863910592426e-02
    x[4,10]   findWorstP[3,4]  -6.7248511754616089e-02
    x[4,10]   findWorstP[4,1]  1.1575362379033934e-01
    x[4,10]   findWorstP[4,2]  1.1575362379033934e-01
    x[4,10]   findWorstP[4,3]  1.1575362379033934e-01
    MARKER    'MARKER'                 'INTEND'
RHS
    RHS1      allocateEach[1]  1
    RHS1      allocateEach[2]  1
    RHS1      allocateEach[3]  1
    RHS1      allocateEach[4]  1
    RHS1      allocateEach[5]  1
    RHS1      allocateEach[6]  1
    RHS1      allocateEach[7]  1
    RHS1      allocateEach[8]  1
    RHS1      allocateEach[9]  1
    RHS1      allocateEach[10]  1
    RHS1      allocateAllCash  1
BOUNDS
 UP BND1      z         1
 MI BND1      cashProportion[1]
 UP BND1      cashProportion[1]  1
 MI BND1      cashProportion[2]
 UP BND1      cashProportion[2]  1
 MI BND1      cashProportion[3]
 UP BND1      cashProportion[3]  1
 MI BND1      cashProportion[4]
 UP BND1      cashProportion[4]  1
 BV BND1      x[1,1]  
 BV BND1      x[1,2]  
 BV BND1      x[1,3]  
 BV BND1      x[1,4]  
 BV BND1      x[1,5]  
 BV BND1      x[1,6]  
 BV BND1      x[1,7]  
 BV BND1      x[1,8]  
 BV BND1      x[1,9]  
 BV BND1      x[1,10] 
 BV BND1      x[2,1]  
 BV BND1      x[2,2]  
 BV BND1      x[2,3]  
 BV BND1      x[2,4]  
 BV BND1      x[2,5]  
 BV BND1      x[2,6]  
 BV BND1      x[2,7]  
 BV BND1      x[2,8]  
 BV BND1      x[2,9]  
 BV BND1      x[2,10] 
 BV BND1      x[3,1]  
 BV BND1      x[3,2]  
 BV BND1      x[3,3]  
 BV BND1      x[3,4]  
 BV BND1      x[3,5]  
 BV BND1      x[3,6]  
 BV BND1      x[3,7]  
 BV BND1      x[3,8]  
 BV BND1      x[3,9]  
 BV BND1      x[3,10] 
 BV BND1      x[4,1]  
 BV BND1      x[4,2]  
 BV BND1      x[4,3]  
 BV BND1      x[4,4]  
 BV BND1      x[4,5]  
 BV BND1      x[4,6]  
 BV BND1      x[4,7]  
 BV BND1      x[4,8]  
 BV BND1      x[4,9]  
 BV BND1      x[4,10] 
ENDATA
